(set-logic BV) (define-fun origCir ((n208 Bool) (n325 Bool) (n254 Bool) (n207 Bool) (i62 Bool)) Bool (xor (and (xor n325 (not (and n254 n207))) n208) i62)) (synth-fun skel ((n208 Bool) (n325 Bool) (n254 Bool) (n207 Bool) (i62 Bool)) Bool) (declare-var n208 Bool) (declare-var n325 Bool) (declare-var n254 Bool) (declare-var n207 Bool) (declare-var i62 Bool) (constraint (= (origCir n208 n325 n254 n207 i62) (skel n208 n325 n254 n207 i62))) (check-synth)
